\ENCODING=ISO-8859-1
\Problem name: 

Minimize
 obj: x1 + x2 + x3 + x4 + x5 + x6 + x7 + x8
Subject To
 c1: 5 x1     + x6 +   x7 + 3 x8 >= 48
 c2:  2 x2         + 2 x7        >= 35
 c3:   2 x3               +   x8 >= 24
 c4:    2 x4                     >= 10
 c5:       x5 + x6               >= 8
Bounds
      x1 >= 0
      x2 >= 0
      x3 >= 0
      x4 >= 0
      x5 >= 0
      x6 >= 0
      x7 >= 0
      x8 >= 0
Generals
 x1  x2  x3  x4  x5  x6  x7  x8 
End
